f1-ex1/f1-ex1.dat
/*********************************************
 * OPL 12.6.0.0 Data
 * Author: fc43959
 * Creation Date: 26 de Fev de 2014 at 08:53:24
 *********************************************/

m = 5;
n = 5;

 A = [[12 17 13 14 18]
      [11 15 13 13 16]
      [13 16 15 14 17]
      [12 15 14 12 15]
      [10 13 11 13 14]];